19:14:25 | INFO    | Run started | run_id: SR_SV_RD_case1_P5_eps9999 | log file: C:\Users\Asus\Documents\GitHub\logistics-model2\internal-logistics-model2\results\SR_SV_RD\case1\SR_SV_RD_case1_P5_eps9999_2026_05_06_19_14.log
19:14:25 | INFO    | Products loaded | sheet=case1 | rows=15
19:14:25 | INFO    | Data loaded | |N|=31 |Nw|=30 |K|=1 |R|=1 |P|=5 | U=30
19:14:25 | INFO    | Big-M | time=491.0 precedence=480.0 wait=465.0 load_lb=20 load_ub=20
19:14:25 | INFO    | Set parameter Username
19:14:25 | INFO    | Set parameter LicenseID to value 2811848
19:14:25 | INFO    | Academic license - for non-commercial use only - expires 2027-04-22
19:14:26 | INFO    | Objective set | primary: min route_duration | tie-break weight on wait: 0.001
19:14:26 | INFO    | Constraint (3) added | total_wait <= 9999
19:14:26 | INFO    | Constraints (4)-(9) added | route structure
19:14:26 | INFO    | Constraints (10)-(12) added | product assignment
19:14:26 | INFO    | Constraints (13)-(15) added | route timing
19:14:26 | INFO    | Constraints (16) added | time consistency
19:14:26 | INFO    | Constraints (17)-(19) added | service times
19:14:26 | INFO    | Constraints (20)-(22) added | precedence, route closure, waiting
19:14:26 | INFO    | Constraints (23)-(27) added | load propagation
19:14:26 | INFO    | Constraints (28)-(32) added | MTZ and route ordering
19:14:26 | INFO    | Set parameter TimeLimit to value 600
19:14:26 | INFO    | Set parameter MIPGap to value 0.01
19:14:26 | INFO    | Set parameter Presolve to value 2
19:14:26 | INFO    | Set parameter LogFile to value "C:\Users\Asus\Documents\GitHub\logistics-model2\internal-logistics-model2\results\SR_SV_RD\case1\result_SR_SV_RD_case1_P5_eps9999_2026_05_06_19_14.log"
19:14:26 | INFO    | Solver configured | TimeLimit=600s | MIPGap=0.01 | gurobi_log=C:\Users\Asus\Documents\GitHub\logistics-model2\internal-logistics-model2\results\SR_SV_RD\case1\result_SR_SV_RD_case1_P5_eps9999_2026_05_06_19_14.log
19:14:26 | INFO    | Optimization starting...
19:14:26 | INFO    | Gurobi Optimizer version 12.0.0 build v12.0.0rc1 (win64 - Windows 10.0 (19045.2))
19:14:26 | INFO    | 
19:14:26 | INFO    | CPU model: 12th Gen Intel(R) Core(TM) i7-12650H, instruction set [SSE2|AVX|AVX2]
19:14:26 | INFO    | Thread count: 10 physical cores, 16 logical processors, using up to 16 threads
19:14:26 | INFO    | 
19:14:26 | INFO    | Non-default parameters:
19:14:26 | INFO    | TimeLimit  600
19:14:26 | INFO    | MIPGap  0.01
19:14:26 | INFO    | Presolve  2
19:14:26 | INFO    | 
19:14:26 | INFO    | Optimize a model with 3852 rows, 1123 columns and 19434 nonzeros
19:14:26 | INFO    | Model fingerprint: 0x3959631f
19:14:26 | INFO    | Variable types: 158 continuous, 965 integer (935 binary)
19:14:26 | INFO    | Coefficient statistics:
19:14:26 | INFO    |   Matrix range     [1e+00, 5e+02]
19:14:26 | INFO    |   Objective range  [1e-03, 1e+00]
19:14:26 | INFO    |   Bounds range     [1e+00, 3e+01]
19:14:26 | INFO    |   RHS range        [1e+00, 1e+04]
19:14:26 | INFO    | Presolve removed 3433 rows and 975 columns
19:14:26 | INFO    | Presolve time: 0.18s
19:14:26 | INFO    | Presolved: 419 rows, 148 columns, 2061 nonzeros
19:14:26 | INFO    | Variable types: 33 continuous, 115 integer (105 binary)
19:14:26 | INFO    | Root relaxation presolve removed 12 rows and 0 columns
19:14:26 | INFO    | Root relaxation presolved: 407 rows, 159 columns, 2039 nonzeros
19:14:26 | INFO    | 
19:14:26 | INFO    | 
19:14:26 | INFO    | Root relaxation: objective 1.500000e-02, 91 iterations, 0.02 seconds (0.00 work units)
19:14:26 | INFO    | 
19:14:26 | INFO    |     Nodes    |    Current Node    |     Objective Bounds      |     Work
19:14:26 | INFO    |  Expl Unexpl |  Obj  Depth IntInf | Incumbent    BestBd   Gap | It/Node Time
19:14:26 | INFO    | 
19:14:26 | INFO    |      0     0    0.01500    0    9          -    0.01500      -     -    0s
19:14:26 | INFO    | H    0     0                      92.1870000    0.01500   100%     -    0s
19:14:26 | INFO    |      0     0    0.01500    0   29   92.18700    0.01500   100%     -    0s
19:14:26 | INFO    |      0     0    0.01500    0   24   92.18700    0.01500   100%     -    0s
19:14:26 | INFO    |      0     0    0.01500    0   18   92.18700    0.01500   100%     -    0s
19:14:26 | INFO    |      0     0    0.01503    0   25   92.18700    0.01503   100%     -    0s
19:14:26 | INFO    |      0     0    0.01580    0   21   92.18700    0.01580   100%     -    0s
19:14:26 | INFO    |      0     0    0.02242    0   34   92.18700    0.02242   100%     -    0s
19:14:26 | INFO    |      0     0    0.02420    0   32   92.18700    0.02420   100%     -    0s
19:14:26 | INFO    |      0     0    0.03271    0   35   92.18700    0.03271   100%     -    0s
19:14:26 | INFO    |      0     0    0.03982    0   37   92.18700    0.03982   100%     -    0s
19:14:26 | INFO    |      0     0    0.05119    0   36   92.18700    0.05119   100%     -    0s
19:14:26 | INFO    |      0     0    0.05133    0   39   92.18700    0.05133   100%     -    0s
19:14:26 | INFO    |      0     0    0.05712    0   35   92.18700    0.05712   100%     -    0s
19:14:26 | INFO    |      0     0    0.05723    0   35   92.18700    0.05723   100%     -    0s
19:14:26 | INFO    |      0     0    0.05745    0   36   92.18700    0.05745   100%     -    0s
19:14:26 | INFO    |      0     0    0.05754    0   35   92.18700    0.05754   100%     -    0s
19:14:26 | INFO    |      0     0    0.05765    0   36   92.18700    0.05765   100%     -    0s
19:14:26 | INFO    |      0     0    0.05841    0   38   92.18700    0.05841   100%     -    0s
19:14:26 | INFO    |      0     0    0.05917    0   37   92.18700    0.05917   100%     -    0s
19:14:26 | INFO    |      0     0    0.05937    0   38   92.18700    0.05937   100%     -    0s
19:14:26 | INFO    |      0     0    0.05947    0   31   92.18700    0.05947   100%     -    0s
19:14:26 | INFO    | H    0     0                      91.1900000    0.05948   100%     -    0s
19:14:26 | INFO    |      0     0    0.05989    0   34   91.19000    0.05989   100%     -    0s
19:14:26 | INFO    |      0     0    0.06051    0   34   91.19000    0.06051   100%     -    0s
19:14:26 | INFO    |      0     0    0.06051    0   34   91.19000    0.06051   100%     -    0s
19:14:26 | INFO    |      0     0    0.06104    0   39   91.19000    0.06104   100%     -    0s
19:14:26 | INFO    |      0     0    0.06108    0   43   91.19000    0.06108   100%     -    0s
19:14:26 | INFO    |      0     0    0.06130    0   45   91.19000    0.06130   100%     -    0s
19:14:26 | INFO    |      0     0    0.06132    0   46   91.19000    0.06132   100%     -    0s
19:14:26 | INFO    |      0     0    0.06132    0   46   91.19000    0.06132   100%     -    0s
19:14:26 | INFO    |      0     0    0.06132    0   46   91.19000    0.06132   100%     -    0s
19:14:26 | INFO    |      0     0    0.06132    0   43   91.19000    0.06132   100%     -    0s
19:14:26 | INFO    |      0     2    0.06132    0   42   91.19000    0.06132   100%     -    0s
19:14:26 | INFO    | H   46    69                      89.1760000    0.06272   100%  27.9    0s
19:14:26 | INFO    | H  352   324                      89.1720000    0.06272   100%  18.7    0s
19:14:26 | INFO    | H  838   608                      85.1600000    0.06988   100%  15.9    0s
19:14:27 | INFO    | H 2899  1314                      81.1080000    0.07307   100%  14.7    0s
19:14:27 | INFO    | H 2913  1258                      80.0970000    0.07307   100%  14.6    1s
19:14:27 | INFO    | H 2914  1195                      77.0910000    0.07307   100%  14.6    1s
19:14:28 | INFO    | 
19:14:28 | INFO    | Cutting planes:
19:14:28 | INFO    |   Learned: 14
19:14:28 | INFO    |   Gomory: 4
19:14:28 | INFO    |   Cover: 8
19:14:28 | INFO    |   Implied bound: 55
19:14:28 | INFO    |   Projected implied bound: 1
19:14:28 | INFO    |   MIR: 126
19:14:28 | INFO    |   StrongCG: 8
19:14:28 | INFO    |   Flow cover: 278
19:14:28 | INFO    |   Inf proof: 40
19:14:28 | INFO    |   Zero half: 3
19:14:28 | INFO    |   RLT: 47
19:14:28 | INFO    |   Relax-and-lift: 38
19:14:28 | INFO    |   PSD: 2
19:14:28 | INFO    | 
19:14:28 | INFO    | Explored 10942 nodes (408972 simplex iterations) in 2.76 seconds (2.43 work units)
19:14:28 | INFO    | Thread count was 16 (of 16 available processors)
19:14:28 | INFO    | 
19:14:28 | INFO    | Solution count 8: 77.091 80.097 81.108 ... 92.187
19:14:28 | INFO    | 
19:14:28 | INFO    | Optimal solution found (tolerance 1.00e-02)
19:14:28 | INFO    | Best objective 7.709100000000e+01, best bound 7.709100000000e+01, gap 0.0000%
19:14:28 | INFO    | Solution found | route_duration=77.00 | total_wait=91.00
19:14:28 | INFO    | Objective=77.09 | runtime=2.76s | MIP Gap=0.00%
19:14:28 | INFO    | Generating Excel output | C:\Users\Asus\Documents\GitHub\logistics-model2\internal-logistics-model2\results\SR_SV_RD\case1\result_SR_SV_RD_case1_P5_eps9999_2026_05_06_19_14.xlsx
19:14:29 | INFO    | Excel output written | 12 sheets | C:\Users\Asus\Documents\GitHub\logistics-model2\internal-logistics-model2\results\SR_SV_RD\case1\result_SR_SV_RD_case1_P5_eps9999_2026_05_06_19_14.xlsx
19:14:29 | INFO    | Master Pareto updated | 31 total rows | C:\Users\Asus\Documents\GitHub\logistics-model2\internal-logistics-model2\results\master_pareto.xlsx
19:14:29 | INFO    | Run complete | run_id=SR_SV_RD_case1_P5_eps9999
